NAME 
ROWS
 N  OBJ
 L  R0      
 E  R1      
 E  R2      
 E  R3      
 E  R4      
 E  R5      
COLUMNS
    MARKER    'MARKER'                 'INTORG'
    I0(2)     OBJ       148
    I0(2)     R0        45
    I0(2)     R5        1
    I1(3)     OBJ       118
    I1(3)     R0        -64
    I1(3)     R2        17
    I1(3)     R5        1
    MARKER    'MARKER'                 'INTEND'
    C2(4)     OBJ       2
    C2(4)     R0        1
    C2(4)     R1        6
    C2(4)     R2        13
    C2(4)     R3        16
    C3(3)     OBJ       9
    C3(3)     R0        -4
    C3(3)     R2        3
    C3(3)     R4        19
    C4(3)     OBJ       -4
    C4(3)     R0        -4
    C4(3)     R3        13
    C4(3)     R4        16
    C5(1)     R1        1
    C6(1)     R2        1
    C7(1)     R3        1
    C8(1)     R4        1
    C9(1)     R5        1
RHS
    RHS1      R0        -19
    RHS1      R1        90
    RHS1      R2        65
    RHS1      R3        86
    RHS1      R4        76
BOUNDS
 UP BND1      I0(2)     2
 UP BND1      I1(3)     2
ENDATA
